(set-info :smt-lib-version 2.6)
(set-logic QF_UF)
(set-info :source |
Generated by: Aman Goel (amangoel@umich.edu), Karem A. Sakallah (karem@umich.edu)
Generated on: 2018-04-06

Generated by the tool Averroes 2 (successor of [1]) which implements safety property
verification on hardware systems.

This SMT problem belongs to a set of SMT problems generated by applying Averroes 2
to benchmarks derived from [2-5].

A total of 412 systems (345 from [2], 19 from [3], 26 from [4], 22 from [5]) were
syntactically converted from their original formats (using [6, 7]), and given to 
Averroes 2 to perform property checking with abstraction (wide bit-vectors -> terms, 
wide operators -> UF) using SMT solvers [8, 9].

[1] Lee S., Sakallah K.A. (2014) Unbounded Scalable Verification Based on Approximate
Property-Directed Reachability and Datapath Abstraction. In: Biere A., Bloem R. (eds)
Computer Aided Verification. CAV 2014. Lecture Notes in Computer Science, vol 8559.
Springer, Cham
[2] http://fmv.jku.at/aiger/index.html#beem
[3] http://www.cs.cmu.edu/~modelcheck/vcegar
[4] http://www.cprover.org/hardware/v2c
[5] http://github.com/aman-goel/verilogbench
[6] http://www.clifford.at/yosys
[7] http://github.com/chengyinwu/V3
[8] http://github.com/Z3Prover/z3
[9] http://github.com/SRI-CSL/yices2

id: iprotocol.4.prop1
query-maker: "Yices 2"
query-time: 0.002000 ms
query-class: abstract
query-category: oneshot
query-type: regular
status: unsat
|)
(set-info :license "https://creativecommons.org/licenses/by/4.0/")
(set-info :category "industrial")

;
(set-info :status unsat)
(declare-sort utt$8 0)
(declare-sort utt$32 0)
(declare-fun y$1 () Bool)
(declare-fun y$100 () Bool)
(declare-fun y$102 () Bool)
(declare-fun y$11 () Bool)
(declare-fun y$13 () Bool)
(declare-fun y$15 () Bool)
(declare-fun y$17 () Bool)
(declare-fun y$19 () Bool)
(declare-fun y$21 () Bool)
(declare-fun y$2169 () Bool)
(declare-fun y$2170 () Bool)
(declare-fun y$2212 () Bool)
(declare-fun y$2219 () Bool)
(declare-fun y$23 () Bool)
(declare-fun y$25 () Bool)
(declare-fun y$27 () Bool)
(declare-fun y$29 () Bool)
(declare-fun y$3 () Bool)
(declare-fun y$31 () Bool)
(declare-fun y$33 () Bool)
(declare-fun y$35 () Bool)
(declare-fun y$37 () Bool)
(declare-fun y$39 () Bool)
(declare-fun y$41 () Bool)
(declare-fun y$43 () Bool)
(declare-fun y$45 () Bool)
(declare-fun y$47 () Bool)
(declare-fun y$49 () Bool)
(declare-fun y$5 () Bool)
(declare-fun y$52 () Bool)
(declare-fun y$54 () Bool)
(declare-fun y$56 () Bool)
(declare-fun y$58 () Bool)
(declare-fun y$60 () Bool)
(declare-fun y$62 () Bool)
(declare-fun y$64 () Bool)
(declare-fun y$66 () Bool)
(declare-fun y$68 () Bool)
(declare-fun y$7 () Bool)
(declare-fun y$70 () Bool)
(declare-fun y$72 () Bool)
(declare-fun y$74 () Bool)
(declare-fun y$76 () Bool)
(declare-fun y$78 () Bool)
(declare-fun y$80 () Bool)
(declare-fun y$82 () Bool)
(declare-fun y$84 () Bool)
(declare-fun y$86 () Bool)
(declare-fun y$88 () Bool)
(declare-fun y$9 () Bool)
(declare-fun y$90 () Bool)
(declare-fun y$92 () Bool)
(declare-fun y$94 () Bool)
(declare-fun y$96 () Bool)
(declare-fun y$98 () Bool)
(declare-fun y$a_ackOk () Bool)
(declare-fun y$a_ack_Medium () Bool)
(declare-fun y$a_ack_Sender () Bool)
(declare-fun y$a_consume () Bool)
(declare-fun y$a_corr_data () Bool)
(declare-fun y$a_dataOk () Bool)
(declare-fun y$a_data_Medium () Bool)
(declare-fun y$a_data_Receiver () Bool)
(declare-fun y$a_data_Sender () Bool)
(declare-fun y$a_nakOk () Bool)
(declare-fun y$a_nak_Medium () Bool)
(declare-fun y$a_nak_Sender () Bool)
(declare-fun y$a_on_timeout () Bool)
(declare-fun y$a_produce () Bool)
(declare-fun y$a_put_data () Bool)
(declare-fun y$a_send_naks () Bool)
(declare-fun y$a_tick () Bool)
(declare-fun y$a_timeout () Bool)
(declare-fun y$a_timeout_ack () Bool)
(declare-fun y$a_wait_Consumer () Bool)
(declare-fun y$a_wait_Medium () Bool)
(declare-fun y$a_wait_Producer () Bool)
(declare-fun y$a_wait_Receiver () Bool)
(declare-fun y$a_wait_Sender () Bool)
(declare-fun y$dve_invalid () Bool)
(declare-fun y$id54 () Bool)
(declare-fun y$id54_op () Bool)
(declare-fun y$n0s32 () utt$32)
(declare-fun y$n0s8 () utt$8)
(declare-fun y$n1s32 () utt$32)
(declare-fun y$n1s8 () utt$8)
(declare-fun y$n2s32 () utt$32)
(declare-fun y$n2s8 () utt$8)
(declare-fun y$n3s32 () utt$32)
(declare-fun y$n3s8 () utt$8)
(declare-fun y$n4s32 () utt$32)
(declare-fun y$n4s8 () utt$8)
(declare-fun y$n5s32 () utt$32)
(declare-fun y$n5s8 () utt$8)
(declare-fun y$n6s32 () utt$32)
(declare-fun y$n6s8 () utt$8)
(declare-fun y$n7s32 () utt$32)
(declare-fun y$n7s8 () utt$8)
(declare-fun y$n8s32 () utt$32)
(declare-fun y$n8s8 () utt$8)
(declare-fun y$prop () Bool)
(declare-fun y$v_i () utt$8)
(declare-fun y$v_lack () utt$8)
(declare-fun y$v_message_Producer () utt$8)
(declare-fun y$v_nakd_0 () utt$8)
(declare-fun y$v_nakd_1 () utt$8)
(declare-fun y$v_nakd_2 () utt$8)
(declare-fun y$v_nakd_3 () utt$8)
(declare-fun y$v_nakd_4 () utt$8)
(declare-fun y$v_nakd_5 () utt$8)
(declare-fun y$v_nakd_6 () utt$8)
(declare-fun y$v_nakd_7 () utt$8)
(declare-fun y$v_rack () utt$8)
(declare-fun y$v_recbuf_0 () utt$8)
(declare-fun y$v_recbuf_1 () utt$8)
(declare-fun y$v_recbuf_2 () utt$8)
(declare-fun y$v_recbuf_3 () utt$8)
(declare-fun y$v_recbuf_4 () utt$8)
(declare-fun y$v_recbuf_5 () utt$8)
(declare-fun y$v_recbuf_6 () utt$8)
(declare-fun y$v_recbuf_7 () utt$8)
(declare-fun y$v_recseq () utt$8)
(declare-fun y$v_sendseq () utt$8)
(declare-fun y$v_sent () utt$8)
(declare-fun y$v_value_Medium () utt$8)
(declare-fun y$v_value_Receiver () utt$8)
(declare-fun y$v_value_Sender () utt$8)
(assert (distinct y$n0s8 y$n1s8 y$n2s8 y$n3s8 y$n4s8 y$n5s8 y$n6s8 y$n7s8 y$n8s8))
(assert (distinct y$n1s32 y$n8s32 y$n0s32 y$n2s32 y$n3s32 y$n4s32 y$n5s32 y$n6s32 y$n7s32))
(assert (= y$a_ackOk (not y$1)))
(assert (= y$a_ack_Medium (not y$3)))
(assert (= y$a_ack_Sender (not y$5)))
(assert (= y$a_consume (not y$7)))
(assert (= y$a_corr_data (not y$9)))
(assert (= y$a_dataOk (not y$11)))
(assert (= y$a_data_Medium (not y$13)))
(assert (= y$a_data_Receiver (not y$15)))
(assert (= y$a_data_Sender (not y$17)))
(assert (= y$a_nakOk (not y$19)))
(assert (= y$a_nak_Medium (not y$21)))
(assert (= y$a_nak_Sender (not y$23)))
(assert (= y$a_on_timeout (not y$25)))
(assert (= y$a_produce (not y$27)))
(assert (= y$a_put_data (not y$29)))
(assert (= y$a_send_naks (not y$31)))
(assert (= y$a_tick (not y$33)))
(assert (= y$a_timeout (not y$35)))
(assert (= y$a_timeout_ack (not y$37)))
(assert (= y$a_wait_Consumer (not y$39)))
(assert (= y$a_wait_Medium (not y$41)))
(assert (= y$a_wait_Producer (not y$43)))
(assert (= y$a_wait_Receiver (not y$45)))
(assert (= y$a_wait_Sender (not y$47)))
(assert (= y$dve_invalid (not y$49)))
(assert (= y$52 (= y$n0s8 y$v_i)))
(assert (= y$54 (= y$n0s8 y$v_lack)))
(assert (= y$56 (= y$n0s8 y$v_message_Producer)))
(assert (= y$58 (= y$n0s8 y$v_nakd_0)))
(assert (= y$60 (= y$n0s8 y$v_nakd_1)))
(assert (= y$62 (= y$n0s8 y$v_nakd_2)))
(assert (= y$64 (= y$n0s8 y$v_nakd_3)))
(assert (= y$66 (= y$n0s8 y$v_nakd_4)))
(assert (= y$68 (= y$n0s8 y$v_nakd_5)))
(assert (= y$70 (= y$n0s8 y$v_nakd_6)))
(assert (= y$72 (= y$n0s8 y$v_nakd_7)))
(assert (= y$74 (= y$n0s8 y$v_rack)))
(assert (= y$76 (= y$n0s8 y$v_recbuf_0)))
(assert (= y$78 (= y$n0s8 y$v_recbuf_1)))
(assert (= y$80 (= y$n0s8 y$v_recbuf_2)))
(assert (= y$82 (= y$n0s8 y$v_recbuf_3)))
(assert (= y$84 (= y$n0s8 y$v_recbuf_4)))
(assert (= y$86 (= y$n0s8 y$v_recbuf_5)))
(assert (= y$88 (= y$n0s8 y$v_recbuf_6)))
(assert (= y$90 (= y$n0s8 y$v_recbuf_7)))
(assert (= y$92 (= y$n0s8 y$v_recseq)))
(assert (= y$94 (= y$n0s8 y$v_sendseq)))
(assert (= y$96 (= y$n0s8 y$v_sent)))
(assert (= y$98 (= y$n0s8 y$v_value_Medium)))
(assert (= y$100 (= y$n0s8 y$v_value_Receiver)))
(assert (= y$102 (= y$n0s8 y$v_value_Sender)))
(assert (= y$prop (not y$2212)))
(assert (= y$id54_op (and y$a_consume y$49)))
(assert (= y$id54_op (not y$2169)))
(assert (= y$2170 (= y$prop y$2169)))
(assert (= y$2219 (and y$1 y$3 y$5 y$7 y$9 y$11 y$13 y$15 y$17 y$19 y$21 y$23 y$25 y$27 y$29 y$31 y$33 y$35 y$37 y$39 y$41 y$43 y$45 y$47 y$49 y$52 y$54 y$56 y$58 y$60 y$62 y$64 y$66 y$68 y$70 y$72 y$74 y$76 y$78 y$80 y$82 y$84 y$86 y$88 y$90 y$92 y$94 y$96 y$98 y$100 y$102 y$2212 y$2170)))
(assert y$2219)
(check-sat)
(exit)
